NAME : single.21652.tour
COMMENT : Length = 21652
COMMENT : Found by LKH [Keld Helsgaun] Wed Nov  6 19:58:29 2024
TYPE : TOUR
DIMENSION : 130
TOUR_SECTION
1
110
109
114
113
111
105
108
112
115
119
117
116
123
125
124
121
120
56
118
122
127
130
129
100
107
103
128
126
102
93
101
95
104
106
94
97
62
98
31
58
96
33
35
32
34
60
61
92
63
59
57
99
36
64
67
65
55
68
66
39
37
38
40
42
41
43
52
50
49
47
48
53
54
51
71
70
69
72
89
73
46
44
30
45
29
28
87
27
26
82
83
24
23
2
3
14
7
4
13
20
6
10
11
9
8
12
5
16
15
17
18
19
21
25
22
90
91
85
86
84
88
79
81
75
76
77
78
80
74
-1
EOF
